300
200
160
160
160
158
157
157
156
156
155
155
154
154
153
153
153
152
152
151
151
151
150
150
150
150
150
150
149
149
148
147
147
146
146
146
145
145
144
144
143
143
143
143
142
142
142
141
141
140
139
139
139
139
138
136
136
136
136
135
135
135
135
134
133
132
132
131
131
130
130
129
129
128
128
128
127
127
127
126
126
125
124
124
123
122
122
122
122
122
121
121
121
120
120
120
119
119
118
117
117
116
116
116
115
114
113
113
113
112
112
112
111
111
110
109
109
109
108
108
107
107
107
107
105
105
105
104
104
104
104
104
103
102
102
101
101
100
100
99
99
98
98
98
98
98
98
97
97
97
97
96
96
95
94
94
93
93
93
93
93
92
92
92
91
91
91
91
91
91
89
89
89
89
89
89
88
88
88
88
87
87
85
84
84
84
84
84
83
83
83
83
83
83
82
82
82
82
82
81
81
81
81
81
81
81
81
80
80
80
80
80
80
79
79
79
78
76
76
75
74
74
74
73
73
73
73
72
72
71
71
71
71
71
70
70
70
68
68
68
67
67
66
66
66
65
65
64
63
63
63
60
59
59
59
59
57
57
57
57
57
56
56
55
54
54
53
52
52
52
51
51
50
50
50
50
48
48
48
47
47
47
47
46
46
46
45
45
44
43
43
43
43
43
43
42
41
41
40
40
40
40
